(set-logic ALL)
(declare-fun seed0_I0_2 () Int)
(declare-fun seed0_PCTEMP_LHS_1 () Int)
(declare-fun seed0_T0_2 () String)
(declare-fun seed0_T1_2 () String)
(declare-fun seed0_T2_2 () String)
(declare-fun seed0_T3_2 () String)
(declare-fun seed0_T4_2 () String)
(declare-fun seed0_T5_2 () String)
(declare-fun seed0_T_2 () Bool)
(declare-fun seed0_T_SELECT_1 () Bool)
(declare-fun seed0_var_0xINPUT_173331 () String)
(assert (and (or (= seed0_T_SELECT_1 (not (= seed0_PCTEMP_LHS_1 (- 1)))) (str.contains (str.++ seed0_T5_2 "03lM4W9HRvcUVAg") (str.++ seed0_var_0xINPUT_173331 "E6WhBzOimfg2q"))) (or (ite seed0_T_SELECT_1 (and (= seed0_PCTEMP_LHS_1 (+ seed0_I0_2 0)) (= seed0_var_0xINPUT_173331 (str.++ seed0_T0_2 seed0_T1_2)) (= seed0_I0_2 (str.len seed0_T4_2)) (= 0 (str.len seed0_T0_2)) (= seed0_T1_2 (str.++ seed0_T2_2 seed0_T3_2)) (= seed0_T2_2 (str.++ seed0_T4_2 seed0_T5_2)) (= seed0_T5_2 "ptrack=") (not (str.in_re seed0_T4_2 (re.++ (str.to_re "p") (str.to_re "t") (str.to_re "r") (str.to_re "a") (str.to_re "c") (str.to_re "k") (str.to_re "="))))) (and (= seed0_PCTEMP_LHS_1 (- 1)) (= seed0_var_0xINPUT_173331 (str.++ seed0_T0_2 seed0_T1_2)) (= 0 (str.len seed0_T0_2)) (not (str.in_re seed0_T1_2 (re.++ (str.to_re "p") (str.to_re "t") (str.to_re "r") (str.to_re "a") (str.to_re "c") (str.to_re "k") (str.to_re "=")))))) (not (str.prefixof (str.++ seed0_T4_2 "ADXCqtUeKsQ") (str.++ seed0_T5_2 "1M2E")))) (or (= seed0_T_2 (not (= seed0_PCTEMP_LHS_1 (- 1)))) (or (str.contains (str.++ seed0_var_0xINPUT_173331 "g3Q4lyUfHBScx2RPozY") (str.++ seed0_T3_2 "ZQ67vBrbfzPj0JM")) (str.<= (str.++ seed0_T1_2 "bQkNBz37fOYTc") (str.++ seed0_T3_2 "kbcgE7rTu3a91h0")))) (or seed0_T_2 (and (> (+ seed0_PCTEMP_LHS_1 (- 170)) (mod seed0_I0_2 seed0_I0_2)) (> (mod seed0_I0_2 seed0_PCTEMP_LHS_1) (+ seed0_I0_2 632))))))
(check-sat)
(exit)